20	5
0	8	7	8	5	3	4	1	2	6
1	2	17	18
2	2	16	17
3	0
4	3	10	14	17
5	2	12	17
6	1	19
7	2	14	17
8	1	9
9	2	17	12
10	2	12	13
11	1	15
12	3	20	16	19
13	2	20	11
14	2	20	11
15	1	16
16	1	18
17	3	21	19	20
18	1	21
19	1	21
20	1	21
21	0
0	0	0	0	0	0	0
1	3	0	0	0	1	3
2	3	2	2	1	4	5
3	6	4	0	2	5	2
4	5	4	3	1	3	3
5	3	2	5	3	2	5
6	9	2	1	2	2	0
7	7	1	0	5	0	0
8	7	2	5	4	3	3
9	2	4	5	2	1	2
10	9	4	5	4	2	2
11	7	0	1	0	2	4
12	8	0	2	3	1	2
13	6	1	1	4	4	5
14	4	0	3	3	0	5
15	2	3	4	1	0	0
16	8	0	4	2	0	0
17	9	3	5	4	3	0
18	10	1	3	1	0	0
19	2	0	0	0	0	1
20	3	2	5	2	2	4
21	0	0	0	0	0	0
4	5	5	5	5
